
<<< setup

Version identifier: 22.1.0.0 | 2022-03-09 | 1a383f8ce
Tried aggregator 1 time.
LP Presolve eliminated 38 rows and 16 columns.
Reduced LP has 1 rows, 9 columns, and 9 nonzeros.
Presolve time = 0.00 sec. (0.01 ticks)

Iteration log . . .
Iteration:     1   Dual objective     =          4691.000000
main returns 0

<<< main


<<< done

